c nIsolatedPIs 0
c maxPI 32
p cnf 282 751
c gate 33 12 -28 0
12 -33 0
-28 -33 0
-12 28 33 0
c gate 34 11 -27 0
11 -34 0
-27 -34 0
-11 27 34 0
c gate 35 -33 -34 0
-33 -35 0
-34 -35 0
33 34 35 0
c gate 36 -10 26 0
-10 -36 0
26 -36 0
10 -26 36 0
c gate 37 -9 25 0
-9 -37 0
25 -37 0
9 -25 37 0
c gate 38 7 -23 0
7 -38 0
-23 -38 0
-7 23 38 0
c gate 39 6 -22 0
6 -39 0
-22 -39 0
-6 22 39 0
c gate 40 5 -21 0
5 -40 0
-21 -40 0
-5 21 40 0
c gate 41 -3 19 0
-3 -41 0
19 -41 0
3 -19 41 0
c gate 42 -2 18 0
-2 -42 0
18 -42 0
2 -18 42 0
c gate 43 -1 17 0
-1 -43 0
17 -43 0
1 -17 43 0
c gate 44 -42 -43 0
-42 -44 0
-43 -44 0
42 43 44 0
c gate 45 2 -18 0
2 -45 0
-18 -45 0
-2 18 45 0
c gate 46 3 -19 0
3 -46 0
-19 -46 0
-3 19 46 0
c gate 47 -45 -46 0
-45 -47 0
-46 -47 0
45 46 47 0
c gate 48 -44 47 0
-44 -48 0
47 -48 0
44 -47 48 0
c gate 49 -41 -48 0
-41 -49 0
-48 -49 0
41 48 49 0
c gate 50 4 -20 0
4 -50 0
-20 -50 0
-4 20 50 0
c gate 51 -49 -50 0
-49 -51 0
-50 -51 0
49 50 51 0
c gate 52 -4 20 0
-4 -52 0
20 -52 0
4 -20 52 0
c gate 53 -51 -52 0
-51 -53 0
-52 -53 0
51 52 53 0
c gate 54 -40 -53 0
-40 -54 0
-53 -54 0
40 53 54 0
c gate 55 -6 -22 0
-6 -55 0
-22 -55 0
6 22 55 0
c gate 56 6 22 0
6 -56 0
22 -56 0
-6 -22 56 0
c gate 57 -55 -56 0
-55 -57 0
-56 -57 0
55 56 57 0
c gate 58 -5 21 0
-5 -58 0
21 -58 0
5 -21 58 0
c gate 59 -57 -58 0
-57 -59 0
-58 -59 0
57 58 59 0
c gate 60 -54 59 0
-54 -60 0
59 -60 0
54 -59 60 0
c gate 61 -39 -60 0
-39 -61 0
-60 -61 0
39 60 61 0
c gate 62 -7 -23 0
-7 -62 0
-23 -62 0
7 23 62 0
c gate 63 7 23 0
7 -63 0
23 -63 0
-7 -23 63 0
c gate 64 -62 -63 0
-62 -64 0
-63 -64 0
62 63 64 0
c gate 65 -61 -64 0
-61 -65 0
-64 -65 0
61 64 65 0
c gate 66 -38 -65 0
-38 -66 0
-65 -66 0
38 65 66 0
c gate 67 8 24 0
8 -67 0
24 -67 0
-8 -24 67 0
c gate 68 -8 -24 0
-8 -68 0
-24 -68 0
8 24 68 0
c gate 69 -67 -68 0
-67 -69 0
-68 -69 0
67 68 69 0
c gate 70 -66 -69 0
-66 -70 0
-69 -70 0
66 69 70 0
c gate 71 8 -24 0
8 -71 0
-24 -71 0
-8 24 71 0
c gate 72 9 -25 0
9 -72 0
-25 -72 0
-9 25 72 0
c gate 73 -71 -72 0
-71 -73 0
-72 -73 0
71 72 73 0
c gate 74 -70 73 0
-70 -74 0
73 -74 0
70 -73 74 0
c gate 75 -37 -74 0
-37 -75 0
-74 -75 0
37 74 75 0
c gate 76 -10 -26 0
-10 -76 0
-26 -76 0
10 26 76 0
c gate 77 10 26 0
10 -77 0
26 -77 0
-10 -26 77 0
c gate 78 -76 -77 0
-76 -78 0
-77 -78 0
76 77 78 0
c gate 79 -75 -78 0
-75 -79 0
-78 -79 0
75 78 79 0
c gate 80 -36 -79 0
-36 -80 0
-79 -80 0
36 79 80 0
c gate 81 35 -80 0
35 -81 0
-80 -81 0
-35 80 81 0
c gate 82 -11 -27 0
-11 -82 0
-27 -82 0
11 27 82 0
c gate 83 11 27 0
11 -83 0
27 -83 0
-11 -27 83 0
c gate 84 -82 -83 0
-82 -84 0
-83 -84 0
82 83 84 0
c gate 85 35 84 0
35 -85 0
84 -85 0
-35 -84 85 0
c gate 86 -13 -29 0
-13 -86 0
-29 -86 0
13 29 86 0
c gate 87 13 29 0
13 -87 0
29 -87 0
-13 -29 87 0
c gate 88 -86 -87 0
-86 -88 0
-87 -88 0
86 87 88 0
c gate 89 -12 28 0
-12 -89 0
28 -89 0
12 -28 89 0
c gate 90 -88 -89 0
-88 -90 0
-89 -90 0
88 89 90 0
c gate 91 -85 90 0
-85 -91 0
90 -91 0
85 -90 91 0
c gate 92 81 91 0
81 -92 0
91 -92 0
-81 -91 92 0
c gate 93 80 84 0
80 -93 0
84 -93 0
-80 -84 93 0
c gate 94 -80 -84 0
-80 -94 0
-84 -94 0
80 84 94 0
c gate 95 -93 -94 0
-93 -95 0
-94 -95 0
93 94 95 0
c gate 96 10 -26 0
10 -96 0
-26 -96 0
-10 26 96 0
c gate 97 -73 -78 0
-73 -97 0
-78 -97 0
73 78 97 0
c gate 98 -96 -97 0
-96 -98 0
-97 -98 0
96 97 98 0
c gate 99 84 -98 0
84 -99 0
-98 -99 0
-84 98 99 0
c gate 100 -95 -99 0
-95 -100 0
-99 -100 0
95 99 100 0
c gate 101 73 78 0
73 -101 0
78 -101 0
-73 -78 101 0
c gate 102 -97 -101 0
-97 -102 0
-101 -102 0
97 101 102 0
c gate 103 75 78 0
75 -103 0
78 -103 0
-75 -78 103 0
c gate 104 -79 -103 0
-79 -104 0
-103 -104 0
79 103 104 0
c gate 105 102 104 0
102 -105 0
104 -105 0
-102 -104 105 0
c gate 106 -102 -104 0
-102 -106 0
-104 -106 0
102 104 106 0
c gate 107 -37 -72 0
-37 -107 0
-72 -107 0
37 72 107 0
c gate 108 70 107 0
70 -108 0
107 -108 0
-70 -107 108 0
c gate 109 -65 -70 0
-65 -109 0
-70 -109 0
65 70 109 0
c gate 110 5 21 0
5 -110 0
21 -110 0
-5 -21 110 0
c gate 111 -40 -58 0
-40 -111 0
-58 -111 0
40 58 111 0
c gate 112 -110 111 0
-110 -112 0
111 -112 0
110 -111 112 0
c gate 113 -53 112 0
-53 -113 0
112 -113 0
53 -112 113 0
c gate 114 57 113 0
57 -114 0
113 -114 0
-57 -113 114 0
c gate 115 -60 -114 0
-60 -115 0
-114 -115 0
60 114 115 0
c gate 116 -65 115 0
-65 -116 0
115 -116 0
65 -115 116 0
c gate 117 -112 116 0
-112 -117 0
116 -117 0
112 -116 117 0
c gate 118 -16 -32 0
-16 -118 0
-32 -118 0
16 32 118 0
c gate 119 16 32 0
16 -119 0
32 -119 0
-16 -32 119 0
c gate 120 -118 -119 0
-118 -120 0
-119 -120 0
118 119 120 0
c gate 121 15 31 0
15 -121 0
31 -121 0
-15 -31 121 0
c gate 122 -14 -30 0
-14 -122 0
-30 -122 0
14 30 122 0
c gate 123 14 -30 0
14 -123 0
-30 -123 0
-14 30 123 0
c gate 124 -14 30 0
-14 -124 0
30 -124 0
14 -30 124 0
c gate 125 -123 -124 0
-123 -125 0
-124 -125 0
123 124 125 0
c gate 126 12 28 0
12 -126 0
28 -126 0
-12 -28 126 0
c gate 127 4 20 0
4 -127 0
20 -127 0
-4 -20 127 0
c gate 128 -4 -20 0
-4 -128 0
-20 -128 0
4 20 128 0
c gate 129 3 19 0
3 -129 0
19 -129 0
-3 -19 129 0
c gate 130 1 17 0
1 -130 0
17 -130 0
-1 -17 130 0
c gate 131 2 18 0
2 -131 0
18 -131 0
-2 -18 131 0
c gate 132 -130 -131 0
-130 -132 0
-131 -132 0
130 131 132 0
c gate 133 -41 -46 0
-41 -133 0
-46 -133 0
41 46 133 0
c gate 134 -132 -133 0
-132 -134 0
-133 -134 0
132 133 134 0
c gate 135 -129 -134 0
-129 -135 0
-134 -135 0
129 134 135 0
c gate 136 -128 -135 0
-128 -136 0
-135 -136 0
128 135 136 0
c gate 137 -127 -136 0
-127 -137 0
-136 -137 0
127 136 137 0
c gate 138 -2 -18 0
-2 -138 0
-18 -138 0
2 18 138 0
c gate 139 -129 138 0
-129 -139 0
138 -139 0
129 -138 139 0
c gate 140 -127 139 0
-127 -140 0
139 -140 0
127 -139 140 0
c gate 141 -137 -140 0
-137 -141 0
-140 -141 0
137 140 141 0
c gate 142 -111 141 0
-111 -142 0
141 -142 0
111 -141 142 0
c gate 143 -110 -142 0
-110 -143 0
-142 -143 0
110 142 143 0
c gate 144 57 143 0
57 -144 0
143 -144 0
-57 -143 144 0
c gate 145 -55 -144 0
-55 -145 0
-144 -145 0
55 144 145 0
c gate 146 64 -145 0
64 -146 0
-145 -146 0
-64 145 146 0
c gate 147 -62 -68 0
-62 -147 0
-68 -147 0
62 68 147 0
c gate 148 -146 147 0
-146 -148 0
147 -148 0
146 -147 148 0
c gate 149 9 25 0
9 -149 0
25 -149 0
-9 -25 149 0
c gate 150 -67 -149 0
-67 -150 0
-149 -150 0
67 149 150 0
c gate 151 -148 150 0
-148 -151 0
150 -151 0
148 -150 151 0
c gate 152 -9 -25 0
-9 -152 0
-25 -152 0
9 25 152 0
c gate 153 -76 -152 0
-76 -153 0
-152 -153 0
76 152 153 0
c gate 154 -151 153 0
-151 -154 0
153 -154 0
151 -153 154 0
c gate 155 -77 -83 0
-77 -155 0
-83 -155 0
77 83 155 0
c gate 156 -154 155 0
-154 -156 0
155 -156 0
154 -155 156 0
c gate 157 -12 -28 0
-12 -157 0
-28 -157 0
12 28 157 0
c gate 158 -82 -157 0
-82 -158 0
-157 -158 0
82 157 158 0
c gate 159 -156 158 0
-156 -159 0
158 -159 0
156 -158 159 0
c gate 160 -126 -159 0
-126 -160 0
-159 -160 0
126 159 160 0
c gate 161 -87 160 0
-87 -161 0
160 -161 0
87 -160 161 0
c gate 162 -86 -161 0
-86 -162 0
-161 -162 0
86 161 162 0
c gate 163 -125 -162 0
-125 -163 0
-162 -163 0
125 162 163 0
c gate 164 -122 -163 0
-122 -164 0
-163 -164 0
122 163 164 0
c gate 165 -15 31 0
-15 -165 0
31 -165 0
15 -31 165 0
c gate 166 15 -31 0
15 -166 0
-31 -166 0
-15 31 166 0
c gate 167 -165 -166 0
-165 -167 0
-166 -167 0
165 166 167 0
c gate 168 164 -167 0
164 -168 0
-167 -168 0
-164 167 168 0
c gate 169 -121 -168 0
-121 -169 0
-168 -169 0
121 168 169 0
c gate 170 120 169 0
120 -170 0
169 -170 0
-120 -169 170 0
c gate 171 -120 -169 0
-120 -171 0
-169 -171 0
120 169 171 0
c gate 172 -170 -171 0
-170 -172 0
-171 -172 0
170 171 172 0
c gate 173 -87 -126 0
-87 -173 0
-126 -173 0
87 126 173 0
c gate 174 -125 173 0
-125 -174 0
173 -174 0
125 -173 174 0
c gate 175 -122 -174 0
-122 -175 0
-174 -175 0
122 174 175 0
c gate 176 -121 -175 0
-121 -176 0
-175 -176 0
121 175 176 0
c gate 177 120 176 0
120 -177 0
176 -177 0
-120 -176 177 0
c gate 178 -120 -176 0
-120 -178 0
-176 -178 0
120 176 178 0
c gate 179 -177 -178 0
-177 -179 0
-178 -179 0
177 178 179 0
c gate 180 172 -179 0
172 -180 0
-179 -180 0
-172 179 180 0
c gate 181 -172 179 0
-172 -181 0
179 -181 0
172 -179 181 0
c gate 182 -180 -181 0
-180 -182 0
-181 -182 0
180 181 182 0
c gate 183 120 -182 0
120 -183 0
-182 -183 0
-120 182 183 0
c gate 184 117 -183 0
117 -184 0
-183 -184 0
-117 183 184 0
c gate 185 69 146 0
69 -185 0
146 -185 0
-69 -146 185 0
c gate 186 -42 130 0
-42 -186 0
130 -186 0
42 -130 186 0
c gate 187 -45 186 0
-45 -187 0
186 -187 0
45 -186 187 0
c gate 188 111 -141 0
111 -188 0
-141 -188 0
-111 141 188 0
c gate 189 -142 -188 0
-142 -189 0
-188 -189 0
142 188 189 0
c gate 190 110 -137 0
110 -190 0
-137 -190 0
-110 137 190 0
c gate 191 -110 137 0
-110 -191 0
137 -191 0
110 -137 191 0
c gate 192 -190 -191 0
-190 -192 0
-191 -192 0
190 191 192 0
c gate 193 189 192 0
189 -193 0
192 -193 0
-189 -192 193 0
c gate 194 -189 -192 0
-189 -194 0
-192 -194 0
189 192 194 0
c gate 195 -193 -194 0
-193 -195 0
-194 -195 0
193 194 195 0
c gate 196 130 138 0
130 -196 0
138 -196 0
-130 -138 196 0
c gate 197 133 196 0
133 -197 0
196 -197 0
-133 -196 197 0
c gate 198 -127 -128 0
-127 -198 0
-128 -198 0
127 128 198 0
c gate 199 139 -198 0
139 -199 0
-198 -199 0
-139 198 199 0
c gate 200 -135 199 0
-135 -200 0
199 -200 0
135 -199 200 0
c gate 201 -197 -200 0
-197 -201 0
-200 -201 0
197 200 201 0
c gate 202 195 201 0
195 -202 0
201 -202 0
-195 -201 202 0
c gate 203 -57 137 0
-57 -203 0
137 -203 0
57 -137 203 0
c gate 204 143 -203 0
143 -204 0
-203 -204 0
-143 203 204 0
c gate 205 202 -204 0
202 -205 0
-204 -205 0
-202 204 205 0
c gate 206 187 205 0
187 -206 0
205 -206 0
-187 -205 206 0
c gate 207 -146 206 0
-146 -207 0
206 -207 0
146 -206 207 0
c gate 208 -185 -207 0
-185 -208 0
-207 -208 0
185 207 208 0
c gate 209 -164 167 0
-164 -209 0
167 -209 0
164 -167 209 0
c gate 210 -168 -209 0
-168 -210 0
-209 -210 0
168 209 210 0
c gate 211 167 175 0
167 -211 0
175 -211 0
-167 -175 211 0
c gate 212 -167 -175 0
-167 -212 0
-175 -212 0
167 175 212 0
c gate 213 -211 -212 0
-211 -213 0
-212 -213 0
211 212 213 0
c gate 214 -210 -213 0
-210 -214 0
-213 -214 0
210 213 214 0
c gate 215 210 213 0
210 -215 0
213 -215 0
-210 -213 215 0
c gate 216 88 126 0
88 -216 0
126 -216 0
-88 -126 216 0
c gate 217 -160 -216 0
-160 -217 0
-216 -217 0
160 216 217 0
c gate 218 -215 -217 0
-215 -218 0
-217 -218 0
215 217 218 0
c gate 219 -214 218 0
-214 -219 0
218 -219 0
214 -218 219 0
c gate 220 182 219 0
182 -220 0
219 -220 0
-182 -219 220 0
c gate 221 208 220 0
208 -221 0
220 -221 0
-208 -220 221 0
c gate 222 78 84 0
78 -222 0
84 -222 0
-78 -84 222 0
c gate 223 -33 -89 0
-33 -223 0
-89 -223 0
33 89 223 0
c gate 224 -107 -223 0
-107 -224 0
-223 -224 0
107 223 224 0
c gate 225 222 224 0
222 -225 0
224 -225 0
-222 -224 225 0
c gate 226 185 -225 0
185 -226 0
-225 -226 0
-185 225 226 0
c gate 227 220 -226 0
220 -227 0
-226 -227 0
-220 226 227 0
c gate 228 125 -173 0
125 -228 0
-173 -228 0
-125 173 228 0
c gate 229 -174 -228 0
-174 -229 0
-228 -229 0
174 228 229 0
c gate 230 125 162 0
125 -230 0
162 -230 0
-125 -162 230 0
c gate 231 -163 -230 0
-163 -231 0
-230 -231 0
163 230 231 0
c gate 232 -229 231 0
-229 -232 0
231 -232 0
229 -231 232 0
c gate 233 -88 -160 0
-88 -233 0
-160 -233 0
88 160 233 0
c gate 234 -232 233 0
-232 -234 0
233 -234 0
232 -233 234 0
c gate 235 229 -231 0
229 -235 0
-231 -235 0
-229 231 235 0
c gate 236 -234 -235 0
-234 -236 0
-235 -236 0
234 235 236 0
c gate 237 -215 236 0
-215 -237 0
236 -237 0
215 -236 237 0
c gate 238 -214 -237 0
-214 -238 0
-237 -238 0
214 237 238 0
c gate 239 -180 238 0
-180 -239 0
238 -239 0
180 -238 239 0
c gate 240 -181 -239 0
-181 -240 0
-239 -240 0
181 239 240 0
c gate 241 -227 240 0
-227 -241 0
240 -241 0
227 -240 241 0
c gate 242 -221 -241 0
-221 -242 0
-241 -242 0
221 241 242 0
c gate 243 184 -242 0
184 -243 0
-242 -243 0
-184 242 243 0
c gate 244 117 -177 0
117 -244 0
-177 -244 0
-117 177 244 0
c gate 245 170 244 0
170 -245 0
244 -245 0
-170 -244 245 0
c gate 246 113 116 0
113 -246 0
116 -246 0
-113 -116 246 0
c gate 247 60 64 0
60 -247 0
64 -247 0
-60 -64 247 0
c gate 248 -246 -247 0
-246 -248 0
-247 -248 0
246 247 248 0
c gate 249 -245 248 0
-245 -249 0
248 -249 0
245 -248 249 0
c gate 250 -184 249 0
-184 -250 0
249 -250 0
184 -249 250 0
c gate 251 -243 -250 0
-243 -251 0
-250 -251 0
243 250 251 0
c gate 252 109 -251 0
109 -252 0
-251 -252 0
-109 251 252 0
c gate 253 -108 -252 0
-108 -253 0
-252 -253 0
108 252 253 0
c gate 254 -106 -253 0
-106 -254 0
-253 -254 0
106 253 254 0
c gate 255 -105 -254 0
-105 -255 0
-254 -255 0
105 254 255 0
c gate 256 -100 -255 0
-100 -256 0
-255 -256 0
100 255 256 0
c gate 257 -80 99 0
-80 -257 0
99 -257 0
80 -99 257 0
c gate 258 -94 -257 0
-94 -258 0
-257 -258 0
94 257 258 0
c gate 259 -256 258 0
-256 -259 0
258 -259 0
256 -258 259 0
c gate 260 -92 -259 0
-92 -260 0
-259 -260 0
92 259 260 0
c gate 261 125 167 0
125 -261 0
167 -261 0
-125 -167 261 0
c gate 262 92 -261 0
92 -262 0
-261 -262 0
-92 261 262 0
c gate 263 13 -29 0
13 -263 0
-29 -263 0
-13 29 263 0
c gate 264 -123 -263 0
-123 -264 0
-263 -264 0
123 263 264 0
c gate 265 81 264 0
81 -265 0
264 -265 0
-81 -264 265 0
c gate 266 167 -265 0
167 -266 0
-265 -266 0
-167 265 266 0
c gate 267 -91 264 0
-91 -267 0
264 -267 0
91 -264 267 0
c gate 268 -124 -165 0
-124 -268 0
-165 -268 0
124 165 268 0
c gate 269 -267 268 0
-267 -269 0
268 -269 0
267 -268 269 0
c gate 270 -266 269 0
-266 -270 0
269 -270 0
266 -269 270 0
c gate 271 120 -166 0
120 -271 0
-166 -271 0
-120 166 271 0
c gate 272 270 271 0
270 -272 0
271 -272 0
-270 -271 272 0
c gate 273 -262 -272 0
-262 -273 0
-272 -273 0
262 272 273 0
c gate 274 -260 273 0
-260 -274 0
273 -274 0
260 -273 274 0
c gate 275 -146 205 0
-146 -275 0
205 -275 0
146 -205 275 0
c gate 276 185 225 0
185 -276 0
225 -276 0
-185 -225 276 0
c gate 277 -275 -276 0
-275 -277 0
-276 -277 0
275 276 277 0
c gate 278 220 -277 0
220 -278 0
-277 -278 0
-220 277 278 0
c gate 279 240 -278 0
240 -279 0
-278 -279 0
-240 278 279 0
c gate 280 274 -279 0
274 -280 0
-279 -280 0
-274 279 280 0
c gate 281 -242 -274 0
-242 -281 0
-274 -281 0
242 274 281 0
c gate 282 -280 -281 0
-280 -282 0
-281 -282 0
280 281 282 0
c PO
282 0
